p edge 65 1040
e 1 2
e 1 3
e 1 4
e 1 5
e 1 6
e 1 7
e 1 8
e 1 9
e 1 10
e 1 11
e 1 12
e 1 13
e 1 14
e 1 15
e 1 16
e 1 17
e 1 18
e 1 19
e 1 20
e 1 21
e 1 22
e 1 23
e 1 24
e 1 25
e 1 26
e 1 27
e 1 28
e 1 29
e 1 30
e 1 31
e 1 32
e 1 33
e 2 3
e 2 4
e 2 5
e 2 6
e 2 7
e 2 8
e 2 9
e 2 10
e 2 11
e 2 12
e 2 13
e 2 14
e 2 15
e 2 16
e 2 17
e 2 34
e 2 35
e 2 36
e 2 37
e 2 38
e 2 39
e 2 40
e 2 41
e 2 42
e 2 43
e 2 44
e 2 45
e 2 46
e 2 47
e 2 48
e 2 49
e 3 5
e 3 7
e 3 11
e 3 13
e 3 17
e 3 21
e 3 23
e 3 25
e 3 26
e 3 27
e 3 29
e 3 30
e 3 32
e 3 33
e 3 34
e 3 35
e 3 39
e 3 40
e 3 41
e 3 42
e 3 47
e 3 48
e 3 49
e 3 50
e 3 53
e 3 55
e 3 58
e 3 62
e 3 63
e 3 65
e 4 6
e 4 8
e 4 10
e 4 11
e 4 15
e 4 19
e 4 20
e 4 21
e 4 26
e 4 27
e 4 28
e 4 30
e 4 32
e 4 33
e 4 34
e 4 36
e 4 37
e 4 41
e 4 44
e 4 46
e 4 47
e 4 48
e 4 49
e 4 57
e 4 59
e 4 60
e 4 61
e 4 62
e 4 64
e 4 65
e 5 6
e 5 9
e 5 10
e 5 17
e 5 18
e 5 24
e 5 25
e 5 26
e 5 27
e 5 29
e 5 31
e 5 32
e 5 33
e 5 37
e 5 38
e 5 42
e 5 43
e 5 44
e 5 45
e 5 46
e 5 47
e 5 49
e 5 50
e 5 54
e 5 56
e 5 60
e 5 61
e 5 63
e 5 65
e 6 11
e 6 14
e 6 17
e 6 22
e 6 23
e 6 24
e 6 25
e 6 28
e 6 29
e 6 30
e 6 31
e 6 33
e 6 35
e 6 36
e 6 37
e 6 43
e 6 44
e 6 45
e 6 46
e 6 48
e 6 49
e 6 52
e 6 54
e 6 55
e 6 58
e 6 59
e 6 62
e 6 64
e 7 9
e 7 11
e 7 12
e 7 13
e 7 15
e 7 18
e 7 19
e 7 20
e 7 22
e 7 23
e 7 26
e 7 31
e 7 33
e 7 35
e 7 38
e 7 43
e 7 45
e 7 46
e 7 47
e 7 48
e 7 49
e 7 51
e 7 53
e 7 56
e 7 57
e 7 58
e 7 59
e 7 62
e 7 65
e 8 12
e 8 14
e 8 15
e 8 16
e 8 17
e 8 20
e 8 24
e 8 26
e 8 27
e 8 29
e 8 30
e 8 31
e 8 33
e 8 34
e 8 36
e 8 38
e 8 40
e 8 41
e 8 44
e 8 45
e 8 48
e 8 50
e 8 51
e 8 52
e 8 53
e 8 56
e 8 58
e 8 61
e 8 65
e 9 10
e 9 12
e 9 13
e 9 15
e 9 19
e 9 23
e 9 24
e 9 27
e 9 28
e 9 30
e 9 31
e 9 32
e 9 35
e 9 36
e 9 38
e 9 40
e 9 41
e 9 42
e 9 46
e 9 49
e 9 52
e 9 54
e 9 56
e 9 57
e 9 58
e 9 61
e 9 63
e 9 64
e 10 12
e 10 14
e 10 16
e 10 18
e 10 19
e 10 22
e 10 27
e 10 28
e 10 29
e 10 30
e 10 32
e 10 34
e 10 38
e 10 39
e 10 42
e 10 43
e 10 44
e 10 47
e 10 48
e 10 53
e 10 56
e 10 58
e 10 59
e 10 60
e 10 62
e 10 63
e 10 64
e 11 12
e 11 16
e 11 18
e 11 21
e 11 22
e 11 28
e 11 29
e 11 31
e 11 32
e 11 33
e 11 39
e 11 40
e 11 41
e 11 42
e 11 45
e 11 47
e 11 48
e 11 49
e 11 50
e 11 51
e 11 52
e 11 54
e 11 57
e 11 59
e 11 61
e 11 64
e 12 16
e 12 17
e 12 20
e 12 22
e 12 23
e 12 25
e 12 28
e 12 29
e 12 31
e 12 34
e 12 35
e 12 38
e 12 41
e 12 42
e 12 44
e 12 45
e 12 51
e 12 55
e 12 57
e 12 60
e 12 61
e 12 62
e 12 63
e 12 64
e 12 65
e 13 14
e 13 15
e 13 16
e 13 17
e 13 19
e 13 21
e 13 24
e 13 28
e 13 31
e 13 32
e 13 33
e 13 34
e 13 35
e 13 36
e 13 37
e 13 39
e 13 43
e 13 47
e 13 51
e 13 52
e 13 55
e 13 58
e 13 59
e 13 60
e 13 61
e 13 63
e 13 65
e 14 15
e 14 16
e 14 17
e 14 18
e 14 22
e 14 23
e 14 24
e 14 26
e 14 30
e 14 33
e 14 37
e 14 38
e 14 39
e 14 40
e 14 41
e 14 45
e 14 47
e 14 53
e 14 54
e 14 55
e 14 57
e 14 58
e 14 59
e 14 60
e 14 63
e 14 64
e 15 16
e 15 20
e 15 21
e 15 22
e 15 24
e 15 25
e 15 31
e 15 32
e 15 36
e 15 40
e 15 44
e 15 46
e 15 47
e 15 48
e 15 49
e 15 50
e 15 53
e 15 54
e 15 55
e 15 56
e 15 57
e 15 60
e 15 62
e 15 63
e 16 17
e 16 19
e 16 25
e 16 26
e 16 28
e 16 29
e 16 32
e 16 37
e 16 39
e 16 42
e 16 43
e 16 46
e 16 48
e 16 50
e 16 51
e 16 52
e 16 53
e 16 54
e 16 55
e 16 56
e 16 57
e 16 64
e 16 65
e 17 20
e 17 21
e 17 23
e 17 25
e 17 27
e 17 30
e 17 39
e 17 40
e 17 43
e 17 45
e 17 46
e 17 49
e 17 51
e 17 52
e 17 56
e 17 59
e 17 60
e 17 61
e 17 62
e 17 63
e 17 64
e 17 65
e 18 20
e 18 21
e 18 22
e 18 23
e 18 24
e 18 25
e 18 26
e 18 29
e 18 31
e 18 32
e 18 34
e 18 36
e 18 37
e 18 38
e 18 39
e 18 40
e 18 41
e 18 43
e 18 46
e 18 47
e 18 51
e 18 53
e 18 56
e 18 59
e 18 61
e 18 64
e 19 20
e 19 21
e 19 22
e 19 23
e 19 24
e 19 26
e 19 27
e 19 28
e 19 30
e 19 37
e 19 39
e 19 41
e 19 42
e 19 43
e 19 44
e 19 45
e 19 46
e 19 47
e 19 50
e 19 51
e 19 52
e 19 54
e 19 58
e 19 62
e 19 65
e 20 21
e 20 22
e 20 23
e 20 25
e 20 26
e 20 30
e 20 33
e 20 35
e 20 36
e 20 38
e 20 39
e 20 42
e 20 43
e 20 44
e 20 47
e 20 49
e 20 50
e 20 52
e 20 55
e 20 56
e 20 60
e 20 61
e 20 64
e 21 22
e 21 25
e 21 27
e 21 28
e 21 29
e 21 32
e 21 35
e 21 36
e 21 38
e 21 39
e 21 40
e 21 41
e 21 44
e 21 45
e 21 46
e 21 52
e 21 53
e 21 54
e 21 59
e 21 60
e 21 63
e 21 65
e 22 25
e 22 27
e 22 31
e 22 33
e 22 34
e 22 37
e 22 40
e 22 41
e 22 42
e 22 43
e 22 45
e 22 48
e 22 52
e 22 54
e 22 55
e 22 56
e 22 58
e 22 60
e 22 62
e 22 63
e 23 24
e 23 26
e 23 28
e 23 29
e 23 30
e 23 35
e 23 37
e 23 39
e 23 40
e 23 41
e 23 44
e 23 46
e 23 48
e 23 50
e 23 55
e 23 56
e 23 57
e 23 59
e 23 61
e 23 62
e 23 63
e 24 25
e 24 26
e 24 29
e 24 31
e 24 32
e 24 34
e 24 36
e 24 39
e 24 41
e 24 42
e 24 44
e 24 45
e 24 49
e 24 50
e 24 51
e 24 52
e 24 57
e 24 58
e 24 59
e 24 60
e 24 62
e 25 27
e 25 28
e 25 31
e 25 34
e 25 36
e 25 37
e 25 38
e 25 39
e 25 42
e 25 46
e 25 49
e 25 50
e 25 53
e 25 55
e 25 57
e 25 58
e 25 62
e 25 64
e 25 65
e 26 27
e 26 29
e 26 33
e 26 35
e 26 36
e 26 37
e 26 41
e 26 42
e 26 43
e 26 48
e 26 49
e 26 51
e 26 53
e 26 54
e 26 57
e 26 60
e 26 63
e 26 64
e 26 65
e 27 28
e 27 30
e 27 31
e 27 34
e 27 35
e 27 37
e 27 39
e 27 40
e 27 45
e 27 48
e 27 49
e 27 51
e 27 53
e 27 54
e 27 56
e 27 57
e 27 58
e 27 60
e 27 61
e 28 29
e 28 33
e 28 36
e 28 37
e 28 38
e 28 40
e 28 43
e 28 44
e 28 49
e 28 50
e 28 51
e 28 53
e 28 55
e 28 57
e 28 58
e 28 59
e 28 61
e 28 63
e 29 32
e 29 35
e 29 36
e 29 38
e 29 40
e 29 44
e 29 47
e 29 48
e 29 51
e 29 52
e 29 54
e 29 55
e 29 56
e 29 58
e 29 60
e 29 62
e 29 65
e 30 31
e 30 32
e 30 33
e 30 34
e 30 35
e 30 38
e 30 40
e 30 42
e 30 46
e 30 47
e 30 50
e 30 51
e 30 52
e 30 53
e 30 54
e 30 55
e 30 59
e 30 62
e 30 64
e 31 34
e 31 35
e 31 37
e 31 44
e 31 47
e 31 48
e 31 50
e 31 51
e 31 52
e 31 53
e 31 54
e 31 59
e 31 61
e 31 63
e 31 64
e 31 65
e 32 33
e 32 34
e 32 35
e 32 41
e 32 43
e 32 45
e 32 46
e 32 50
e 32 52
e 32 53
e 32 55
e 32 56
e 32 57
e 32 60
e 32 61
e 32 62
e 32 64
e 33 34
e 33 36
e 33 38
e 33 42
e 33 43
e 33 45
e 33 50
e 33 54
e 33 55
e 33 56
e 33 57
e 33 58
e 33 59
e 33 61
e 33 63
e 33 65
e 34 35
e 34 36
e 34 37
e 34 39
e 34 40
e 34 41
e 34 42
e 34 43
e 34 44
e 34 51
e 34 55
e 34 56
e 34 57
e 34 59
e 34 62
e 34 65
e 35 36
e 35 37
e 35 38
e 35 39
e 35 43
e 35 44
e 35 45
e 35 48
e 35 52
e 35 53
e 35 54
e 35 55
e 35 57
e 35 60
e 35 64
e 36 38
e 36 39
e 36 40
e 36 42
e 36 43
e 36 46
e 36 48
e 36 51
e 36 54
e 36 58
e 36 61
e 36 62
e 36 63
e 36 64
e 37 38
e 37 40
e 37 41
e 37 43
e 37 46
e 37 47
e 37 48
e 37 50
e 37 52
e 37 55
e 37 57
e 37 60
e 37 61
e 37 65
e 38 40
e 38 42
e 38 45
e 38 46
e 38 47
e 38 50
e 38 52
e 38 53
e 38 57
e 38 58
e 38 59
e 38 60
e 38 65
e 39 42
e 39 44
e 39 45
e 39 47
e 39 48
e 39 50
e 39 54
e 39 56
e 39 57
e 39 58
e 39 59
e 39 61
e 39 64
e 40 41
e 40 43
e 40 47
e 40 49
e 40 50
e 40 51
e 40 52
e 40 54
e 40 56
e 40 57
e 40 62
e 40 63
e 41 42
e 41 44
e 41 45
e 41 46
e 41 49
e 41 52
e 41 53
e 41 55
e 41 58
e 41 61
e 41 63
e 41 64
e 41 65
e 42 46
e 42 48
e 42 49
e 42 50
e 42 51
e 42 52
e 42 54
e 42 55
e 42 59
e 42 60
e 42 63
e 43 44
e 43 45
e 43 49
e 43 50
e 43 51
e 43 52
e 43 53
e 43 56
e 43 62
e 43 63
e 43 64
e 44 45
e 44 47
e 44 49
e 44 50
e 44 53
e 44 54
e 44 55
e 44 56
e 44 59
e 44 63
e 44 65
e 45 46
e 45 50
e 45 51
e 45 53
e 45 54
e 45 57
e 45 58
e 45 60
e 45 61
e 45 62
e 46 48
e 46 51
e 46 53
e 46 54
e 46 55
e 46 56
e 46 59
e 46 61
e 46 62
e 46 65
e 47 49
e 47 50
e 47 51
e 47 54
e 47 55
e 47 58
e 47 60
e 47 61
e 47 62
e 47 64
e 47 65
e 48 50
e 48 52
e 48 53
e 48 56
e 48 58
e 48 59
e 48 60
e 48 61
e 48 62
e 48 63
e 49 51
e 49 52
e 49 53
e 49 55
e 49 56
e 49 57
e 49 58
e 49 59
e 49 60
e 49 64
e 50 52
e 50 53
e 50 57
e 50 61
e 50 62
e 50 63
e 51 53
e 51 54
e 51 55
e 51 59
e 51 60
e 51 61
e 51 62
e 52 56
e 52 58
e 52 59
e 52 60
e 52 64
e 52 65
e 53 55
e 53 58
e 53 59
e 53 63
e 53 64
e 54 55
e 54 56
e 54 57
e 54 63
e 54 64
e 54 65
e 55 56
e 55 58
e 55 60
e 55 61
e 56 57
e 56 58
e 56 59
e 56 61
e 56 65
e 57 59
e 57 60
e 57 62
e 57 64
e 57 65
e 58 61
e 58 62
e 58 64
e 58 65
e 59 60
e 59 63
e 59 65
e 60 61
e 60 62
e 60 63
e 61 63
e 61 64
e 62 63
e 62 64
e 62 65
e 63 64
e 63 65
e 64 65
